param n := 120;
param c := 10000
param : V : p w :=
   0	 387	 377
   1	 294	 284
   2	 349	 339
   3	 376	 366
   4	 270	 260
   5	 384	 374
   6	 479	 469
   7	 263	 253
   8	 288	 278
   9	 407	 397
  10	 302	 292
  11	 321	 311
  12	 439	 429
  13	 270	 260
  14	 321	 311
  15	 458	 448
  16	 263	 253
  17	 309	 299
  18	 438	 428
  19	 279	 269
  20	 313	 303
  21	 501	 491
  22	 261	 251
  23	 268	 258
  24	 367	 357
  25	 275	 265
  26	 388	 378
  27	 360	 350
  28	 330	 320
  29	 340	 330
  30	 463	 453
  31	 260	 250
  32	 307	 297
  33	 390	 380
  34	 270	 260
  35	 370	 360
  36	 481	 471
  37	 268	 258
  38	 281	 271
  39	 401	 391
  40	 300	 290
  41	 329	 319
  42	 475	 465
  43	 264	 254
  44	 291	 281
  45	 430	 420
  46	 264	 254
  47	 336	 326
  48	 414	 404
  49	 307	 297
  50	 309	 299
  51	 374	 364
  52	 310	 300
  53	 346	 336
  54	 380	 370
  55	 313	 303
  56	 337	 327
  57	 368	 358
  58	 279	 269
  59	 383	 373
  60	 381	 371
  61	 264	 254
  62	 385	 375
  63	 461	 451
  64	 267	 257
  65	 302	 292
  66	 390	 380
  67	 305	 295
  68	 335	 325
  69	 367	 357
  70	 283	 273
  71	 380	 370
  72	 369	 359
  73	 328	 318
  74	 333	 323
  75	 467	 457
  76	 272	 262
  77	 291	 281
  78	 451	 441
  79	 265	 255
  80	 314	 304
  81	 478	 468
  82	 267	 257
  83	 285	 275
  84	 501	 491
  85	 262	 252
  86	 267	 257
  87	 369	 359
  88	 276	 266
  89	 385	 375
  90	 469	 459
  91	 262	 252
  92	 299	 289
  93	 437	 427
  94	 262	 252
  95	 331	 321
  96	 471	 461
  97	 273	 263
  98	 286	 276
  99	 435	 425
 100	 296	 286
 101	 299	 289
 102	 370	 360
 103	 287	 277
 104	 373	 363
 105	 412	 402
 106	 307	 297
 107	 311	 301
 108	 465	 455
 109	 270	 260
 110	 295	 285
 111	 503	 493
 112	 260	 250
 113	 267	 257
 114	 388	 378
 115	 309	 299
 116	 333	 323
 117	 400	 390
 118	 295	 285
 119	 335	 325
;

set E :=
   0	   4
   0	   7
   0	   9
   0	  11
   0	  12
   0	  13
   0	  16
   0	  22
   0	  34
   0	  41
   0	  47
   0	  57
   0	  61
   0	  67
   0	  72
   0	  74
   0	  84
   0	  85
   0	 107
   1	   9
   1	  16
   1	  17
   1	  19
   1	  20
   1	  44
   1	  49
   1	  52
   1	  66
   1	  76
   1	  77
   1	  78
   1	  86
   1	  95
   1	 100
   1	 103
   1	 111
   1	 116
   1	 119
   2	  12
   2	  15
   2	  22
   2	  23
   2	  24
   2	  29
   2	  33
   2	  34
   2	  36
   2	  38
   2	  42
   2	  44
   2	  49
   2	  59
   2	  63
   2	  68
   2	  70
   2	  75
   2	  77
   2	  84
   2	  91
   2	  94
   2	  95
   2	 101
   2	 103
   2	 110
   2	 111
   2	 115
   2	 116
   3	   5
   3	   7
   3	  12
   3	  13
   3	  18
   3	  23
   3	  31
   3	  40
   3	  48
   3	  54
   3	  82
   3	  83
   3	  88
   3	  95
   3	 100
   3	 102
   3	 103
   3	 111
   4	  11
   4	  20
   4	  22
   4	  24
   4	  25
   4	  26
   4	  29
   4	  34
   4	  45
   4	  62
   4	  65
   4	  68
   4	  70
   4	  74
   4	  85
   4	  87
   4	  94
   4	 112
   5	   9
   5	  17
   5	  19
   5	  22
   5	  31
   5	  33
   5	  39
   5	  41
   5	  59
   5	  62
   5	  64
   5	  68
   5	  72
   5	  74
   5	  78
   5	  81
   5	  88
   5	  92
   5	  93
   5	 101
   5	 107
   5	 110
   5	 111
   5	 113
   5	 117
   6	  11
   6	  18
   6	  19
   6	  20
   6	  28
   6	  34
   6	  35
   6	  37
   6	  38
   6	  46
   6	  57
   6	  62
   6	  65
   6	  67
   6	  70
   6	  75
   6	  81
   6	  90
   6	  93
   6	  96
   6	 101
   6	 106
   6	 107
   6	 108
   6	 109
   6	 116
   6	 117
   6	 119
   7	   9
   7	  15
   7	  16
   7	  18
   7	  39
   7	  45
   7	  54
   7	  55
   7	  61
   7	  62
   7	  68
   7	  69
   7	  70
   7	  73
   7	  80
   7	  81
   7	  83
   7	  86
   7	  88
   7	  90
   7	  98
   7	 101
   7	 102
   7	 106
   7	 107
   7	 112
   7	 113
   7	 119
   8	  13
   8	  22
   8	  24
   8	  37
   8	  46
   8	  49
   8	  53
   8	  54
   8	  60
   8	  69
   8	  73
   8	  76
   8	  80
   8	  84
   8	  85
   8	  89
   8	  93
   8	  98
   8	 101
   8	 104
   8	 108
   8	 116
   9	  21
   9	  30
   9	  31
   9	  33
   9	  34
   9	  36
   9	  39
   9	  48
   9	  59
   9	  67
   9	  69
   9	  70
   9	  71
   9	  74
   9	  75
   9	  77
   9	  81
   9	  84
   9	  95
   9	  98
   9	 101
   9	 102
   9	 110
   9	 114
  10	  11
  10	  12
  10	  13
  10	  21
  10	  26
  10	  42
  10	  43
  10	  44
  10	  47
  10	  53
  10	  54
  10	  56
  10	  61
  10	  62
  10	  64
  10	  65
  10	  69
  10	  70
  10	  71
  10	  79
  10	  81
  10	  84
  10	  91
  10	 100
  10	 117
  10	 118
  11	  12
  11	  17
  11	  25
  11	  29
  11	  32
  11	  49
  11	  50
  11	  56
  11	  58
  11	  67
  11	  71
  11	  73
  11	  78
  11	  82
  11	  85
  11	  86
  11	  89
  11	  92
  11	  93
  11	  98
  11	 103
  11	 109
  11	 117
  12	  14
  12	  18
  12	  19
  12	  29
  12	  34
  12	  49
  12	  67
  12	  75
  12	  88
  12	  99
  12	 100
  12	 101
  12	 102
  12	 105
  13	  15
  13	  22
  13	  24
  13	  35
  13	  36
  13	  38
  13	  39
  13	  46
  13	  47
  13	  53
  13	  56
  13	  58
  13	  71
  13	  74
  13	  76
  13	  83
  13	  95
  13	 106
  13	 119
  14	  18
  14	  32
  14	  47
  14	  50
  14	  62
  14	  70
  14	  74
  14	  89
  14	  90
  14	 107
  14	 110
  14	 118
  15	  22
  15	  24
  15	  28
  15	  35
  15	  39
  15	  41
  15	  42
  15	  43
  15	  44
  15	  47
  15	  52
  15	  53
  15	  55
  15	  64
  15	  67
  15	  69
  15	  71
  15	  84
  15	  87
  15	  88
  15	  89
  15	  92
  15	  98
  15	 104
  15	 117
  15	 119
  16	  18
  16	  28
  16	  32
  16	  37
  16	  38
  16	  41
  16	  55
  16	  62
  16	  64
  16	  65
  16	  66
  16	  88
  16	  93
  16	  94
  16	  99
  16	 105
  16	 111
  16	 112
  17	  19
  17	  20
  17	  22
  17	  27
  17	  37
  17	  42
  17	  45
  17	  48
  17	  49
  17	  51
  17	  55
  17	  62
  17	  65
  17	  79
  17	  92
  17	  94
  17	 107
  17	 108
  17	 111
  18	  22
  18	  26
  18	  27
  18	  32
  18	  33
  18	  38
  18	  46
  18	  49
  18	  59
  18	  61
  18	  67
  18	  68
  18	  70
  18	  73
  18	  82
  18	  83
  18	 100
  18	 101
  18	 107
  19	  20
  19	  21
  19	  24
  19	  36
  19	  37
  19	  39
  19	  44
  19	  50
  19	  52
  19	  53
  19	  59
  19	  61
  19	  67
  19	  69
  19	  88
  19	  98
  19	  99
  19	 107
  19	 108
  19	 111
  19	 113
  19	 115
  20	  23
  20	  24
  20	  44
  20	  53
  20	  54
  20	  55
  20	  59
  20	  62
  20	  67
  20	  70
  20	  79
  20	  83
  20	  85
  20	  93
  20	  98
  20	 104
  20	 107
  20	 110
  20	 114
  20	 118
  20	 119
  21	  23
  21	  28
  21	  34
  21	  37
  21	  50
  21	  51
  21	  52
  21	  56
  21	  61
  21	  63
  21	  68
  21	  75
  21	  97
  21	  98
  21	 111
  22	  36
  22	  55
  22	  59
  22	  60
  22	  70
  22	  71
  22	  81
  22	  83
  22	  88
  22	  90
  22	  91
  22	  97
  22	 102
  22	 103
  22	 111
  22	 112
  22	 113
  22	 114
  23	  25
  23	  26
  23	  32
  23	  33
  23	  35
  23	  38
  23	  41
  23	  50
  23	  54
  23	  55
  23	  62
  23	  63
  23	  65
  23	  67
  23	  70
  23	  73
  23	  81
  23	  90
  23	  92
  23	  98
  23	 100
  23	 112
  23	 115
  24	  28
  24	  36
  24	  38
  24	  43
  24	  45
  24	  46
  24	  48
  24	  51
  24	  52
  24	  64
  24	  65
  24	  68
  24	  78
  24	  79
  24	  81
  24	  82
  24	  84
  24	  93
  24	  98
  24	 110
  25	  31
  25	  37
  25	  40
  25	  46
  25	  50
  25	  51
  25	  56
  25	  64
  25	  72
  25	  73
  25	  80
  25	  84
  25	  88
  25	  92
  25	  95
  25	 100
  25	 104
  25	 110
  25	 113
  25	 115
  26	  33
  26	  34
  26	  36
  26	  37
  26	  38
  26	  41
  26	  47
  26	  49
  26	  55
  26	  65
  26	  80
  26	  86
  26	  93
  26	  99
  26	 101
  26	 102
  26	 104
  26	 116
  27	  31
  27	  35
  27	  40
  27	  42
  27	  44
  27	  59
  27	  60
  27	  64
  27	  67
  27	  68
  27	  73
  27	  80
  27	  87
  27	  90
  27	  91
  27	  93
  27	  95
  27	 103
  28	  31
  28	  34
  28	  35
  28	  60
  28	  63
  28	  65
  28	  81
  28	  83
  28	  85
  28	  93
  29	  35
  29	  38
  29	  59
  29	  61
  29	  66
  29	  71
  29	  75
  29	  81
  29	  83
  29	  85
  29	  89
  29	  98
  29	 102
  29	 119
  30	  32
  30	  33
  30	  36
  30	  49
  30	  53
  30	  55
  30	  66
  30	  67
  30	  70
  30	  74
  30	  80
  30	  84
  30	  90
  30	 104
  30	 107
  30	 109
  30	 116
  31	  38
  31	  57
  31	  59
  31	  69
  31	  86
  31	  91
  31	  92
  31	  93
  31	  95
  31	 101
  31	 104
  31	 114
  32	  33
  32	  36
  32	  53
  32	  70
  32	  79
  32	  84
  32	  89
  32	  98
  32	 104
  32	 107
  32	 108
  32	 111
  32	 112
  32	 118
  32	 119
  33	  34
  33	  35
  33	  41
  33	  46
  33	  48
  33	  52
  33	  53
  33	  55
  33	  60
  33	  68
  33	  72
  33	  77
  33	  78
  33	  81
  33	  84
  33	  85
  33	  88
  33	  91
  33	  96
  33	  97
  33	 106
  33	 111
  33	 114
  34	  42
  34	  45
  34	  47
  34	  55
  34	  60
  34	  62
  34	  63
  34	  65
  34	  68
  34	  71
  34	  72
  34	  78
  34	  80
  34	  95
  34	  99
  34	 102
  34	 115
  34	 118
  35	  46
  35	  56
  35	  70
  35	  78
  35	  80
  35	  81
  35	  89
  35	  94
  35	  99
  35	 100
  35	 112
  35	 115
  35	 118
  35	 119
  36	  40
  36	  47
  36	  55
  36	  57
  36	  66
  36	  71
  36	  76
  36	  80
  36	  85
  36	  86
  36	  88
  36	  89
  36	  91
  36	  93
  36	  99
  36	 100
  36	 105
  36	 110
  36	 116
  36	 119
  37	  44
  37	  49
  37	  51
  37	  57
  37	  62
  37	  66
  37	  83
  37	  84
  37	  97
  37	  99
  37	 100
  37	 101
  38	  41
  38	  42
  38	  47
  38	  48
  38	  54
  38	  63
  38	  64
  38	  65
  38	  75
  38	  76
  38	  82
  38	  83
  38	  93
  38	  99
  38	 106
  38	 107
  38	 118
  39	  41
  39	  42
  39	  44
  39	  45
  39	  46
  39	  48
  39	  49
  39	  54
  39	  63
  39	  67
  39	  73
  39	  76
  39	  82
  39	  89
  39	  90
  39	  91
  39	  93
  39	  97
  39	 100
  39	 101
  39	 107
  39	 111
  39	 112
  39	 118
  40	  41
  40	  48
  40	  67
  40	  69
  40	  70
  40	 107
  40	 110
  40	 117
  41	  47
  41	  52
  41	  61
  41	  64
  41	  65
  41	  72
  41	  75
  41	  90
  41	  96
  41	  99
  41	 108
  41	 113
  41	 119
  42	  45
  42	  66
  42	  67
  42	  74
  42	  75
  42	  78
  42	  82
  42	  83
  42	  84
  42	  87
  42	  90
  42	  92
  42	  94
  42	 100
  42	 106
  42	 107
  42	 117
  42	 119
  43	  45
  43	  46
  43	  47
  43	  56
  43	  65
  43	  71
  43	  72
  43	  81
  43	  83
  43	  89
  43	  98
  43	 104
  43	 109
  43	 111
  44	  46
  44	  52
  44	  53
  44	  60
  44	  65
  44	  78
  44	  82
  44	  84
  44	  91
  44	  95
  44	  97
  44	 103
  44	 110
  44	 112
  44	 115
  44	 116
  44	 118
  45	  48
  45	  51
  45	  52
  45	  59
  45	  64
  45	  72
  45	  74
  45	  75
  45	  81
  45	  86
  45	  91
  45	  95
  45	  96
  45	  97
  45	  98
  45	 103
  45	 107
  45	 110
  45	 111
  45	 112
  46	  47
  46	  49
  46	  50
  46	  59
  46	  70
  46	  79
  46	  81
  46	  83
  46	  84
  46	  85
  46	  90
  46	  91
  46	  97
  46	  98
  46	 115
  47	  48
  47	  53
  47	  56
  47	  57
  47	  60
  47	  69
  47	  70
  47	  74
  47	  79
  47	  82
  47	  84
  47	  86
  47	  89
  47	  90
  47	  96
  47	 104
  47	 115
  47	 117
  48	  50
  48	  71
  48	  82
  48	  86
  48	  90
  48	  91
  48	  99
  48	 111
  48	 112
  48	 119
  49	  50
  49	  55
  49	  62
  49	  68
  49	  73
  49	  76
  49	  81
  49	  89
  49	  92
  49	  93
  49	  94
  49	 100
  49	 103
  49	 104
  49	 107
  49	 118
  50	  54
  50	  55
  50	  56
  50	  59
  50	  60
  50	  61
  50	  62
  50	  66
  50	  71
  50	  82
  50	  83
  50	  87
  50	 101
  50	 104
  50	 108
  50	 110
  50	 113
  50	 115
  50	 116
  50	 117
  51	  54
  51	  57
  51	  65
  51	  70
  51	  75
  51	  76
  51	  80
  51	  81
  51	  86
  51	  88
  51	  89
  51	  93
  51	  95
  51	  97
  51	 102
  51	 104
  51	 110
  51	 111
  51	 115
  51	 119
  52	  56
  52	  57
  52	  61
  52	  62
  52	  70
  52	  86
  52	  90
  52	  96
  52	 104
  52	 106
  52	 111
  52	 119
  53	  54
  53	  63
  53	  65
  53	  82
  53	  84
  53	  99
  53	 100
  53	 107
  53	 118
  54	  70
  54	  77
  54	  83
  54	  84
  54	 100
  54	 103
  54	 104
  54	 118
  54	 119
  55	  57
  55	  62
  55	  63
  55	  69
  55	  78
  55	  90
  55	  91
  55	  97
  55	  98
  55	  99
  55	 104
  55	 114
  55	 118
  56	  59
  56	  63
  56	  64
  56	  69
  56	  71
  56	  74
  56	  77
  56	  78
  56	  81
  56	  82
  56	  88
  56	  89
  56	  94
  56	 103
  56	 104
  56	 106
  56	 107
  57	  61
  57	  74
  57	  78
  57	  84
  57	  85
  57	  86
  57	  91
  57	  94
  57	  95
  57	 111
  57	 119
  58	  60
  58	  61
  58	  63
  58	  68
  58	  69
  58	  73
  58	  77
  58	  83
  58	  92
  58	  97
  58	 107
  58	 109
  58	 111
  59	  65
  59	  71
  59	  76
  59	  88
  59	  89
  59	  90
  59	  93
  59	  94
  59	 100
  59	 110
  59	 111
  59	 112
  60	  62
  60	  66
  60	  69
  60	  84
  60	  85
  60	  88
  60	  92
  60	  95
  60	  96
  60	 102
  60	 109
  60	 111
  60	 115
  60	 116
  61	  62
  61	  63
  61	  72
  61	  76
  61	  82
  61	  96
  61	  99
  61	 102
  61	 103
  61	 109
  61	 118
  62	  65
  62	  66
  62	  67
  62	  73
  62	  75
  62	  79
  62	  88
  62	  92
  62	  95
  62	 103
  62	 110
  62	 117
  62	 119
  63	  65
  63	  67
  63	  71
  63	  80
  63	  86
  63	  87
  63	  93
  63	 105
  63	 108
  63	 114
  63	 116
  63	 119
  64	  65
  64	  70
  64	  72
  64	  73
  64	  76
  64	  89
  64	  91
  64	  93
  64	  94
  64	  95
  64	  97
  64	 104
  64	 105
  64	 110
  64	 112
  65	  77
  65	  83
  65	  87
  65	  90
  65	  93
  65	  94
  65	 103
  65	 104
  65	 110
  66	  72
  66	  80
  66	  87
  66	  92
  66	  94
  66	 101
  66	 104
  66	 107
  66	 109
  66	 110
  66	 111
  66	 116
  66	 118
  67	  70
  67	  73
  67	  75
  67	  77
  67	  78
  67	  90
  67	  94
  67	  95
  67	 103
  67	 108
  67	 109
  67	 110
  68	  78
  68	  81
  68	  83
  68	  90
  68	  97
  68	 105
  68	 108
  68	 110
  68	 114
  68	 118
  69	  73
  69	  86
  69	  93
  69	  95
  69	 101
  69	 105
  69	 107
  69	 111
  69	 112
  69	 118
  70	  96
  70	 104
  70	 110
  70	 112
  70	 117
  71	  74
  71	  75
  71	  77
  71	  85
  71	 104
  71	 105
  71	 110
  71	 111
  71	 113
  71	 119
  72	  77
  72	  79
  72	  80
  72	  96
  72	  99
  72	 105
  72	 107
  72	 111
  72	 115
  72	 118
  73	  75
  73	  76
  73	  82
  73	  83
  73	  85
  73	  89
  73	  91
  73	  98
  73	 101
  73	 102
  73	 103
  73	 106
  73	 108
  73	 110
  73	 114
  73	 115
  74	  80
  74	  81
  74	  86
  74	  87
  74	  88
  74	  93
  74	  94
  74	 101
  74	 107
  74	 109
  75	  78
  75	  83
  75	  86
  75	  88
  75	  98
  75	 100
  75	 101
  75	 104
  75	 106
  75	 112
  75	 114
  75	 115
  76	  78
  76	  80
  76	  84
  76	  89
  76	  95
  76	  96
  76	 107
  76	 112
  76	 113
  76	 115
  76	 116
  77	  84
  77	  89
  77	  90
  77	  92
  77	  96
  77	  97
  77	  98
  77	 100
  77	 102
  77	 111
  77	 112
  77	 116
  78	  84
  78	  86
  78	  87
  78	  95
  78	 102
  78	 107
  78	 109
  78	 116
  78	 118
  78	 119
  79	  80
  79	  82
  79	  84
  79	  85
  79	  88
  79	  97
  79	  98
  79	  99
  79	 102
  79	 108
  79	 110
  79	 114
  79	 116
  79	 117
  80	  82
  80	  93
  80	  96
  80	 102
  80	 108
  80	 110
  80	 113
  81	 107
  81	 109
  81	 110
  81	 111
  81	 112
  82	  92
  82	  93
  82	  95
  82	  96
  82	  98
  82	  99
  82	 100
  82	 104
  82	 109
  83	  86
  83	  89
  83	  91
  83	 104
  83	 109
  83	 113
  84	  86
  84	 102
  84	 104
  84	 105
  84	 106
  84	 114
  85	  90
  85	  92
  85	  98
  85	 101
  85	 104
  85	 108
  85	 110
  85	 119
  86	  89
  86	  94
  86	  96
  86	  97
  86	 102
  86	 106
  86	 113
  86	 119
  87	  89
  87	  98
  87	 103
  87	 104
  87	 112
  87	 113
  87	 114
  88	  91
  88	 109
  88	 116
  88	 119
  89	  90
  89	  93
  89	 103
  89	 105
  89	 107
  89	 108
  89	 111
  89	 115
  90	  95
  90	  96
  90	 106
  90	 116
  90	 117
  91	  93
  91	  98
  91	 100
  91	 101
  91	 108
  91	 119
  92	  96
  92	 103
  92	 104
  92	 105
  92	 110
  92	 115
  92	 118
  93	  99
  93	 100
  93	 101
  93	 105
  93	 110
  93	 111
  93	 113
  93	 118
  94	 102
  94	 110
  94	 111
  94	 112
  95	 103
  95	 105
  95	 110
  95	 115
  95	 119
  96	  97
  96	 104
  96	 112
  97	 101
  97	 103
  98	 107
  98	 109
  98	 119
  99	 106
  99	 108
  99	 114
 100	 102
 100	 106
 100	 107
 100	 110
 100	 119
 101	 102
 101	 105
 101	 106
 101	 107
 101	 111
 102	 113
 103	 106
 103	 111
 103	 113
 104	 106
 104	 115
 104	 116
 105	 107
 106	 107
 106	 115
 107	 115
 108	 114
 108	 119
 109	 110
 109	 115
 110	 116
 110	 117
 111	 117
 111	 119
 112	 118
 114	 119
 115	 119
 116	 117
 116	 118
 117	 119
;
